150 7197
1 87 76 73 3 62 149 125 22 104 4 150 115 44 71 45 128 68 119 91 106 13 136 145 72 147 49 144 129 41 39 57 101 116 12 43 134 138 46 54 92 90 56 26 146 126 52 96 89 8 30 84 7 103 98 34 63 48 113 10 94 88 121 79 59 78 15 16 133 122 80 14 77 131 32 38 23 67 109 51 20 25 110 81 29 86 58 55 141 83 75 18 142 85 65 132 137 50 135 70 108 102 114 99 19 2 37 6 9 28 42 47 120 139 40 53 24 118 127 69 36 61 11 148 130 17 66 60 140 117 27 31 123 74 112 64 21 111 105 33 93 35 124 97 100 143 5 107 95 82 
